experiment/data/lkh-res/Vrp-Set-P-n55/Vrp-Set-P-n55-lkh/0.lkh1.tour
NAME : 0.69972.tour
COMMENT : Length = 69972
COMMENT : Found by LKH-3 [Keld Helsgaun] Tue Apr  9 02:39:30 2024
TYPE : TOUR
DIMENSION : 64
TOUR_SECTION
1
5
56
39
12
15
54
62
41
33
45
4
18
57
26
51
19
25
50
17
52
59
35
47
53
9
8
27
64
3
23
29
22
49
60
11
32
10
40
13
61
30
6
48
37
38
21
16
63
31
46
28
14
55
20
36
58
7
34
2
44
43
42
24
-1
EOF
